WARNING: for repeatability, setting FPU to use double precision
Reading from standard input... Use '--help' for help.
============================[ Problem Statistics ]=============================
|                                                                             |
|  Number of variables:          8000                                         |
|  Number of clauses:           70238                                         |
|  Parse time:                   0.01 s                                       |
|  Eliminated clauses:           0.01 Mb                                      |
|  Simplification time:          0.01 s                                       |
|                                                                             |
LBD Based Clause Deletion : 1
Rapid Deletion : 1
Almost Conflict : 1
Anti Exploration : 1
============================[ Search Statistics ]==============================
| Conflicts |          ORIGINAL         |          LEARNT          | Progress |
|           |    Vars  Clauses Literals |    Limit  Clauses Lit/Cl |          |
===============================================================================
|       100 |    1010     8829    24100 |     2000      100     35 | 84.775 % |
===============================================================================
restarts              : 2
conflicts             : 144            (5281 /sec)
decisions             : 504            (0.00 % random) (18483 /sec)
propagations          : 17593          (645165 /sec)
conflict literals     : 6388           (7.54 % deleted)
actual reward         : 0.185473
Memory used           : 11.00 MB
CPU time              : 0.027269 s

SATISFIABLE
